(set-logic HORN)
(set-info :source |
    Benchmark: C_VC
    Output by Princess (http://www.philipp.ruemmer.org/princess.shtml)
|)
(set-info :status sat)
(declare-heap Heap Addr HeapObject
 defObj
 ((HeapObject 0)) (
  (
   (O_Int (getInt Int))
   (O_UInt (getUInt Int))
   (O_Addr (getAddr Addr))
   (defObj)
  )
))
(declare-fun inv_main2 (Heap Int) Bool)
(declare-fun inv_main20 (Heap Int AddrRange AddrRange Int Int Int Int Int) Bool)
(declare-fun inv_main22 (Heap Int AddrRange AddrRange Int Int Int Int Int) Bool)
(declare-fun inv_main27 (Heap Int AddrRange AddrRange Int Int Int Int Int) Bool)
(declare-fun inv_main38 (Heap Int AddrRange AddrRange Int Int Int Int Int Int) Bool)
(declare-fun inv_main43 (Heap Int AddrRange AddrRange Int Int Int Int Int) Bool)
(declare-fun inv_main45 (Heap Int AddrRange AddrRange Int Int Int Int Int) Bool)
(declare-fun inv_main47 (Heap Int AddrRange AddrRange Int Int Int Int Int Int) Bool)
(assert (forall ((var0 Int) (var1 Heap)) (or (not (and (= var1 emptyHeap) (= var0 0))) (inv_main2 var1 var0))))
(assert (forall ((var0 Int) (var1 Int) (var2 Int) (var3 Int) (var4 Int) (var5 Int) (var6 Int) (var7 Int) (var8 Int) (var9 Int) (var10 Int) (var11 AddrRange) (var12 AddrRange) (var13 AddrRange) (var14 AddrRange) (var15 Int) (var16 Int) (var17 Heap) (var18 Heap) (var19 Int) (var20 Int) (var21 Int) (var22 Int) (var23 Int) (var24 Int) (var25 Int) (var26 Int) (var27 AddrRange) (var28 AddrRange) (var29 Int) (var30 Heap)) (or (not (and (inv_main38 var30 var29 var28 var27 var26 var25 var24 var23 var22 var21) (and (and (not (= var20 0)) (and (<= 0 var19) (and (and (and (and (and (and (and (and (and (= var18 var17) (= var16 var15)) (= var14 var13)) (= var12 var11)) (= var10 var9)) (= var8 var7)) (= var6 var5)) (= var4 var3)) (= var2 var19)) (or (and (<= 0 (+ (+ var15 (* (- 1) var19)) (- 1))) (= var20 1)) (and (not (<= 0 (+ (+ var15 (* (- 1) var19)) (- 1)))) (= var20 0)))))) (and (not (= var3 0)) (and (and (is-O_Int (read var30 (nthAddrRange var27 var22))) (is-O_Int (read var30 (nthAddrRange var27 var22)))) (and (and (and (and (and (and (and (and (= var17 (write var30 (nthAddrRange var27 var22) (O_Int var21))) (= var15 var29)) (= var13 var28)) (= var11 var27)) (= var9 var26)) (= var7 var25)) (= var5 var24)) (= var1 var23)) (= var0 var22))))))) (inv_main27 var18 var16 var14 var12 var10 var8 var6 var4 var2))))
(assert (forall ((var0 Int) (var1 Int) (var2 Int) (var3 Int) (var4 Int) (var5 Int) (var6 Int) (var7 Int) (var8 Int) (var9 Int) (var10 AddrRange) (var11 AddrRange) (var12 AddrRange) (var13 AddrRange) (var14 Int) (var15 Int) (var16 Heap) (var17 Heap) (var18 Int) (var19 Int) (var20 Int) (var21 Int) (var22 Int) (var23 Int) (var24 Int) (var25 AddrRange) (var26 AddrRange) (var27 Int) (var28 Heap)) (or (not (and (inv_main22 var28 var27 var26 var25 var24 var23 var22 var21 var20) (and (and (not (= var19 0)) (and (<= 0 var18) (and (and (and (and (and (and (and (and (and (= var17 var16) (= var15 var14)) (= var13 var12)) (= var11 var10)) (= var9 (+ var8 1))) (= var7 var6)) (= var5 var4)) (= var3 var2)) (= var1 var18)) (or (and (<= 0 (+ (+ var14 (* (- 1) var18)) (- 1))) (= var19 1)) (and (not (<= 0 (+ (+ var14 (* (- 1) var18)) (- 1)))) (= var19 0)))))) (and (not (<= 0 (+ (+ var14 (* (- 1) (+ var8 1))) (- 1)))) (and (and (is-O_Int (read var28 (nthAddrRange var25 var24))) (is-O_Int (read var28 (nthAddrRange var25 var24)))) (and (and (and (and (and (and (and (and (= var16 (write var28 (nthAddrRange var25 var24) (O_Int 0))) (= var14 var27)) (= var12 var26)) (= var10 var25)) (= var8 var24)) (= var6 var23)) (= var4 var22)) (= var2 var21)) (= var0 var20))))))) (inv_main27 var17 var15 var13 var11 var9 var7 var5 var3 var1))))
(assert (forall ((var0 Int) (var1 Heap) (var2 Int) (var3 Int) (var4 Int) (var5 Heap) (var6 AddrRange) (var7 Int) (var8 Int) (var9 Int) (var10 Int) (var11 Int) (var12 Int) (var13 Int) (var14 Int) (var15 AddrRange) (var16 AddrRange) (var17 AddrRange) (var18 AddrRange) (var19 Int) (var20 Int) (var21 Heap) (var22 Heap) (var23 Int) (var24 Int) (var25 Int) (var26 Heap)) (or (not (and (inv_main2 var26 var25) (and (and (not (= var24 0)) (and (<= 0 var23) (and (and (and (and (and (and (and (and (and (= var22 var21) (= var20 var19)) (= var18 var17)) (= var16 var15)) (= var14 0)) (= var13 (- 1))) (= var12 0)) (= var11 var10)) (= var9 var23)) (or (and (<= 0 (+ (+ var19 (* (- 1) var23)) (- 1))) (= var24 1)) (and (not (<= 0 (+ (+ var19 (* (- 1) var23)) (- 1)))) (= var24 0)))))) (and (and (and (not (<= 0 (+ var19 (- 1)))) (and (and (and (= var21 (newBatchHeap (batchAlloc emptyHeap (O_Int var8) var7))) (= var19 var7)) (= var17 var6)) (= var15 (newAddrRange (batchAlloc emptyHeap (O_Int var8) var7))))) (and (and (= var5 (newBatchHeap (batchAlloc emptyHeap (O_Int var4) var3))) (= var7 var3)) (= var6 (newAddrRange (batchAlloc emptyHeap (O_Int var4) var3))))) (and (not (= var2 0)) (and (and (= var1 var26) (= var3 var0)) (or (and (<= 0 (+ var0 (- 1))) (= var2 1)) (and (not (<= 0 (+ var0 (- 1)))) (= var2 0))))))))) (inv_main27 var22 var20 var18 var16 var14 var13 var12 var11 var9))))
(assert (forall ((var0 Int) (var1 Int) (var2 Int) (var3 Int) (var4 Int) (var5 Int) (var6 AddrRange) (var7 AddrRange) (var8 Heap) (var9 Int) (var10 Int) (var11 Int) (var12 Int) (var13 Int) (var14 Int) (var15 Int) (var16 Int) (var17 AddrRange) (var18 AddrRange) (var19 Int) (var20 Heap)) (or (not (and (inv_main38 var20 var19 var18 var17 var16 var15 var14 var13 var12 var11) (and (and (not (<= 0 (+ var10 (- 1)))) (and (= var9 0) (and (and (is-O_Int (read var20 (nthAddrRange var17 var12))) (is-O_Int (read var20 (nthAddrRange var17 var12)))) (and (and (and (and (and (and (and (and (= var8 (write var20 (nthAddrRange var17 var12) (O_Int var11))) (= var10 var19)) (= var7 var18)) (= var6 var17)) (= var5 var16)) (= var4 var15)) (= var3 var14)) (= var2 var13)) (= var1 var12))))) (= var0 0)))) (inv_main43 var8 var10 var7 var6 var0 var4 var3 var9 var1))))
(assert (forall ((var0 Int) (var1 Int) (var2 Int) (var3 Int) (var4 Int) (var5 Int) (var6 AddrRange) (var7 AddrRange) (var8 Heap) (var9 Int) (var10 Int) (var11 Int) (var12 Int) (var13 Int) (var14 Int) (var15 Int) (var16 Int) (var17 AddrRange) (var18 AddrRange) (var19 Int) (var20 Heap)) (or (not (and (inv_main47 var20 var19 var18 var17 var16 var15 var14 var13 var12 var11) (and (and (not (<= 0 (+ (+ var10 (* (- 1) (+ var9 1))) (- 1)))) (and (is-O_Int (read var20 (nthAddrRange var17 var16))) (and (and (and (and (and (and (and (and (and (= var8 var20) (= var10 var19)) (= var7 var18)) (= var6 var17)) (= var9 var16)) (= var5 var15)) (= var4 var14)) (= var3 var13)) (= var2 var12)) (= var1 (+ var11 (getInt (read var20 (nthAddrRange var17 var16)))))))) (= var0 (+ var9 1))))) (inv_main43 var8 var10 var7 var6 var0 var5 var1 var3 var2))))
(assert (forall ((var0 Int) (var1 Int) (var2 Int) (var3 Int) (var4 Int) (var5 AddrRange) (var6 AddrRange) (var7 Heap) (var8 Int) (var9 Int) (var10 Int) (var11 Int) (var12 Int) (var13 Int) (var14 Int) (var15 AddrRange) (var16 AddrRange) (var17 Int) (var18 Heap)) (or (not (and (inv_main22 var18 var17 var16 var15 var14 var13 var12 var11 var10) (and (and (<= 0 (+ (+ var9 (* (- 1) (+ var8 1))) (- 1))) (and (and (is-O_Int (read var18 (nthAddrRange var15 var14))) (is-O_Int (read var18 (nthAddrRange var15 var14)))) (and (and (and (and (and (and (and (and (= var7 (write var18 (nthAddrRange var15 var14) (O_Int 0))) (= var9 var17)) (= var6 var16)) (= var5 var15)) (= var8 var14)) (= var4 var13)) (= var3 var12)) (= var2 var11)) (= var1 var10)))) (= var0 (+ var8 1))))) (inv_main20 var7 var9 var6 var5 var0 var4 var3 var2 var1))))
(assert (forall ((var0 Int) (var1 Int) (var2 Int) (var3 Int) (var4 Int) (var5 Int) (var6 Heap) (var7 Int) (var8 Int) (var9 Int) (var10 Heap) (var11 AddrRange) (var12 AddrRange) (var13 AddrRange) (var14 Int) (var15 Int) (var16 Heap) (var17 Int) (var18 Int) (var19 Heap)) (or (not (and (inv_main2 var19 var18) (and (and (and (and (and (and (<= 0 (+ var17 (- 1))) (and (and (and (= var16 (newBatchHeap (batchAlloc emptyHeap (O_Int var15) var14))) (= var17 var14)) (= var13 var12)) (= var11 (newAddrRange (batchAlloc emptyHeap (O_Int var15) var14))))) (and (and (= var10 (newBatchHeap (batchAlloc emptyHeap (O_Int var9) var8))) (= var14 var8)) (= var12 (newAddrRange (batchAlloc emptyHeap (O_Int var9) var8))))) (and (not (= var7 0)) (and (and (= var6 var19) (= var8 var5)) (or (and (<= 0 (+ var5 (- 1))) (= var7 1)) (and (not (<= 0 (+ var5 (- 1)))) (= var7 0)))))) (= var4 0)) (= var3 (- 1))) (= var2 0)))) (inv_main20 var16 var17 var13 var11 var4 var3 var2 var1 var0))))
(assert (forall ((var0 Int) (var1 Int) (var2 Int) (var3 Int) (var4 Int) (var5 Int) (var6 AddrRange) (var7 AddrRange) (var8 Int) (var9 Heap)) (or (not (and (inv_main45 var9 var8 var7 var6 var5 var4 var3 var2 var1) (and (is-O_Int (read var9 (nthAddrRange var7 var5))) (= var0 (+ var3 (getInt (read var9 (nthAddrRange var7 var5)))))))) (inv_main47 var9 var8 var7 var6 var5 var4 var3 var2 var1 var0))))
(assert (forall ((var0 Heap) (var1 Int) (var2 Int) (var3 Int) (var4 Int) (var5 Int) (var6 AddrRange) (var7 AddrRange) (var8 Int) (var9 Heap)) (or (not (and (inv_main20 var9 var8 var7 var6 var5 var4 var3 var2 var1) (and (and (is-O_Int (read var9 (nthAddrRange var7 var5))) (is-O_Int (read var9 (nthAddrRange var7 var5)))) (= var0 (write var9 (nthAddrRange var7 var5) (O_Int 0)))))) (inv_main22 var0 var8 var7 var6 var5 var4 var3 var2 var1))))
(assert (forall ((var0 Int) (var1 Int) (var2 Int) (var3 Int) (var4 Int) (var5 Int) (var6 AddrRange) (var7 AddrRange) (var8 Heap) (var9 Int) (var10 Int) (var11 Int) (var12 Int) (var13 Int) (var14 Int) (var15 Int) (var16 Int) (var17 AddrRange) (var18 AddrRange) (var19 Int) (var20 Heap)) (or (not (and (inv_main38 var20 var19 var18 var17 var16 var15 var14 var13 var12 var11) (and (and (<= 0 (+ var10 (- 1))) (and (= var9 0) (and (and (is-O_Int (read var20 (nthAddrRange var17 var12))) (is-O_Int (read var20 (nthAddrRange var17 var12)))) (and (and (and (and (and (and (and (and (= var8 (write var20 (nthAddrRange var17 var12) (O_Int var11))) (= var10 var19)) (= var7 var18)) (= var6 var17)) (= var5 var16)) (= var4 var15)) (= var3 var14)) (= var2 var13)) (= var1 var12))))) (= var0 0)))) (inv_main45 var8 var10 var7 var6 var0 var4 var3 var9 var1))))
(assert (forall ((var0 Int) (var1 Int) (var2 Int) (var3 Int) (var4 Int) (var5 Int) (var6 AddrRange) (var7 AddrRange) (var8 Heap) (var9 Int) (var10 Int) (var11 Int) (var12 Int) (var13 Int) (var14 Int) (var15 Int) (var16 Int) (var17 AddrRange) (var18 AddrRange) (var19 Int) (var20 Heap)) (or (not (and (inv_main47 var20 var19 var18 var17 var16 var15 var14 var13 var12 var11) (and (and (<= 0 (+ (+ var10 (* (- 1) (+ var9 1))) (- 1))) (and (is-O_Int (read var20 (nthAddrRange var17 var16))) (and (and (and (and (and (and (and (and (and (= var8 var20) (= var10 var19)) (= var7 var18)) (= var6 var17)) (= var9 var16)) (= var5 var15)) (= var4 var14)) (= var3 var13)) (= var2 var12)) (= var1 (+ var11 (getInt (read var20 (nthAddrRange var17 var16)))))))) (= var0 (+ var9 1))))) (inv_main45 var8 var10 var7 var6 var0 var5 var1 var3 var2))))
(assert (forall ((var0 Int) (var1 Int) (var2 Int) (var3 Int) (var4 AddrRange) (var5 AddrRange) (var6 Heap) (var7 Int) (var8 Int) (var9 Int) (var10 Int) (var11 Int) (var12 Int) (var13 Int) (var14 AddrRange) (var15 AddrRange) (var16 Int) (var17 Heap)) (or (not (and (inv_main27 var17 var16 var15 var14 var13 var12 var11 var10 var9) (and (and (= var8 (+ var7 (- 1))) (and (is-O_Int (read var17 (nthAddrRange var15 var9))) (is-O_Int (read var17 (nthAddrRange var15 var9))))) (and (and (and (and (and (and (and (and (= var6 (write var17 (nthAddrRange var15 var9) (O_Int (* var12 (* var12 (* var12 (* var12 var9))))))) (= var7 var16)) (= var5 var15)) (= var4 var14)) (= var3 var13)) (= var2 var12)) (= var1 var11)) (= var0 var10)) (= var8 var9))))) (inv_main38 var6 var7 var5 var4 var3 var2 var1 var0 var8 var8))))
(assert (forall ((var0 Int) (var1 Int) (var2 Int) (var3 Int) (var4 Int) (var5 AddrRange) (var6 AddrRange) (var7 Heap) (var8 Int) (var9 Int) (var10 Int) (var11 Int) (var12 Int) (var13 Int) (var14 Int) (var15 AddrRange) (var16 AddrRange) (var17 Int) (var18 Heap)) (or (not (and (inv_main27 var18 var17 var16 var15 var14 var13 var12 var11 var10) (and (and (and (not (= var9 (+ var8 (- 1)))) (and (is-O_Int (read var18 (nthAddrRange var16 var10))) (is-O_Int (read var18 (nthAddrRange var16 var10))))) (and (and (and (and (and (and (and (and (= var7 (write var18 (nthAddrRange var16 var10) (O_Int (* var13 (* var13 (* var13 (* var13 var10))))))) (= var8 var17)) (= var6 var16)) (= var5 var15)) (= var4 var14)) (= var3 var13)) (= var2 var12)) (= var1 var11)) (= var9 var10))) (= var0 (* var3 var9))))) (inv_main38 var7 var8 var6 var5 var4 var3 var2 var1 var9 var0))))
(assert (forall ((var0 Int) (var1 Int) (var2 Int) (var3 Int) (var4 Int) (var5 AddrRange) (var6 AddrRange) (var7 Int) (var8 Heap)) (not (and (inv_main20 var8 var7 var6 var5 var4 var3 var2 var1 var0) (not (is-O_Int (read var8 (nthAddrRange var6 var4))))))))
(assert (forall ((var0 Int) (var1 Int) (var2 Int) (var3 Int) (var4 Int) (var5 AddrRange) (var6 AddrRange) (var7 Int) (var8 Heap)) (not (and (inv_main20 var8 var7 var6 var5 var4 var3 var2 var1 var0) (and (is-O_Int (read var8 (nthAddrRange var6 var4))) (not (within var6 (nthAddrRange var6 var4))))))))
(assert (forall ((var0 Int) (var1 Int) (var2 Int) (var3 Int) (var4 Int) (var5 AddrRange) (var6 AddrRange) (var7 Int) (var8 Heap)) (not (and (inv_main20 var8 var7 var6 var5 var4 var3 var2 var1 var0) (and (is-O_Int (read var8 (nthAddrRange var6 var4))) (not (is-O_Int (read var8 (nthAddrRange var6 var4)))))))))
(assert (forall ((var0 Int) (var1 Int) (var2 Int) (var3 Int) (var4 Int) (var5 AddrRange) (var6 AddrRange) (var7 Int) (var8 Heap)) (not (and (inv_main22 var8 var7 var6 var5 var4 var3 var2 var1 var0) (not (is-O_Int (read var8 (nthAddrRange var5 var4))))))))
(assert (forall ((var0 Int) (var1 Int) (var2 Int) (var3 Int) (var4 Int) (var5 AddrRange) (var6 AddrRange) (var7 Int) (var8 Heap)) (not (and (inv_main22 var8 var7 var6 var5 var4 var3 var2 var1 var0) (and (is-O_Int (read var8 (nthAddrRange var5 var4))) (not (within var5 (nthAddrRange var5 var4))))))))
(assert (forall ((var0 Int) (var1 Int) (var2 Int) (var3 Int) (var4 Int) (var5 AddrRange) (var6 AddrRange) (var7 Int) (var8 Heap)) (not (and (inv_main22 var8 var7 var6 var5 var4 var3 var2 var1 var0) (and (is-O_Int (read var8 (nthAddrRange var5 var4))) (not (is-O_Int (read var8 (nthAddrRange var5 var4)))))))))
(assert (forall ((var0 Int) (var1 Int) (var2 Int) (var3 Int) (var4 Int) (var5 AddrRange) (var6 AddrRange) (var7 Int) (var8 Heap)) (not (and (inv_main27 var8 var7 var6 var5 var4 var3 var2 var1 var0) (not (is-O_Int (read var8 (nthAddrRange var6 var0))))))))
(assert (forall ((var0 Int) (var1 Int) (var2 Int) (var3 Int) (var4 Int) (var5 AddrRange) (var6 AddrRange) (var7 Int) (var8 Heap)) (not (and (inv_main27 var8 var7 var6 var5 var4 var3 var2 var1 var0) (and (is-O_Int (read var8 (nthAddrRange var6 var0))) (not (within var6 (nthAddrRange var6 var0))))))))
(assert (forall ((var0 Int) (var1 Int) (var2 Int) (var3 Int) (var4 Int) (var5 AddrRange) (var6 AddrRange) (var7 Int) (var8 Heap)) (not (and (inv_main27 var8 var7 var6 var5 var4 var3 var2 var1 var0) (and (is-O_Int (read var8 (nthAddrRange var6 var0))) (not (is-O_Int (read var8 (nthAddrRange var6 var0)))))))))
(assert (forall ((var0 Int) (var1 Int) (var2 Int) (var3 Int) (var4 Int) (var5 Int) (var6 AddrRange) (var7 AddrRange) (var8 Int) (var9 Heap)) (not (and (inv_main38 var9 var8 var7 var6 var5 var4 var3 var2 var1 var0) (not (is-O_Int (read var9 (nthAddrRange var6 var1))))))))
(assert (forall ((var0 Int) (var1 Int) (var2 Int) (var3 Int) (var4 Int) (var5 Int) (var6 AddrRange) (var7 AddrRange) (var8 Int) (var9 Heap)) (not (and (inv_main38 var9 var8 var7 var6 var5 var4 var3 var2 var1 var0) (and (is-O_Int (read var9 (nthAddrRange var6 var1))) (not (within var6 (nthAddrRange var6 var1))))))))
(assert (forall ((var0 Int) (var1 Int) (var2 Int) (var3 Int) (var4 Int) (var5 Int) (var6 AddrRange) (var7 AddrRange) (var8 Int) (var9 Heap)) (not (and (inv_main38 var9 var8 var7 var6 var5 var4 var3 var2 var1 var0) (and (is-O_Int (read var9 (nthAddrRange var6 var1))) (not (is-O_Int (read var9 (nthAddrRange var6 var1)))))))))
(assert (forall ((var0 Int) (var1 Int) (var2 Int) (var3 Int) (var4 Int) (var5 AddrRange) (var6 AddrRange) (var7 Int) (var8 Heap)) (not (and (inv_main45 var8 var7 var6 var5 var4 var3 var2 var1 var0) (not (is-O_Int (read var8 (nthAddrRange var6 var4))))))))
(assert (forall ((var0 Int) (var1 Int) (var2 Int) (var3 Int) (var4 Int) (var5 AddrRange) (var6 AddrRange) (var7 Int) (var8 Heap)) (not (and (inv_main45 var8 var7 var6 var5 var4 var3 var2 var1 var0) (and (is-O_Int (read var8 (nthAddrRange var6 var4))) (not (within var6 (nthAddrRange var6 var4))))))))
(assert (forall ((var0 Int) (var1 Int) (var2 Int) (var3 Int) (var4 Int) (var5 Int) (var6 AddrRange) (var7 AddrRange) (var8 Int) (var9 Heap)) (not (and (inv_main47 var9 var8 var7 var6 var5 var4 var3 var2 var1 var0) (not (is-O_Int (read var9 (nthAddrRange var6 var5))))))))
(assert (forall ((var0 Int) (var1 Int) (var2 Int) (var3 Int) (var4 Int) (var5 Int) (var6 AddrRange) (var7 AddrRange) (var8 Int) (var9 Heap)) (not (and (inv_main47 var9 var8 var7 var6 var5 var4 var3 var2 var1 var0) (and (is-O_Int (read var9 (nthAddrRange var6 var5))) (not (within var6 (nthAddrRange var6 var5))))))))
(assert (forall ((var0 Int) (var1 Int) (var2 Int) (var3 Int) (var4 Int) (var5 AddrRange) (var6 AddrRange) (var7 Int) (var8 Heap)) (not (and (inv_main43 var8 var7 var6 var5 var4 var3 var2 var1 var0) (and (not (= var2 0)) (not (= (+ var2 2) (* 2 var7))))))))
(check-sat)
